(set-info :source |printed by MathSAT|)
(declare-fun |.x{73}| () Int)
(declare-fun |.x{82}| () Int)
(declare-fun |.x{74}| () Int)
(declare-fun |.y{3}| () Int)
(declare-fun |.x{75}| () (Array Int Int))
(declare-fun |.x{83}| () (Array Int Int))
(declare-fun |.x{76}| () Int)
(declare-fun |.x{81}| () Int)
(declare-fun |.y{2}| () Int)
(declare-fun |.x{84}| () Int)
(declare-fun |.loc{3}| () Bool)
(declare-fun |.loc{5}| () Bool)
(declare-fun |.loc{4}| () Bool)
(declare-fun |.loc{6}| () Bool)
(declare-fun |.x{92}| () Int)
(declare-fun |.x{110}| () Int)
(define-fun .def_18 () Bool (! |.loc{3}| :next |.loc{5}|))
(define-fun .def_60 () Bool (not .def_18))
(define-fun .def_20 () Bool (! |.loc{4}| :next |.loc{6}|))
(define-fun .def_36 () Bool (not .def_20))
(define-fun .def_121 () Bool (! (and .def_36 .def_60) :init true))
(define-fun .def_8 () Int (! |.x{73}| :next |.x{82}|))
(define-fun .def_29 () Bool (= .def_8 |.x{82}|))
(define-fun .def_117 () Bool (and |.loc{6}| .def_29))
(define-fun .def_12 () (Array Int Int) (! |.x{75}| :next |.x{83}|))
(define-fun .def_114 () Bool (= .def_12 |.x{83}|))
(define-fun .def_14 () Int (! |.x{76}| :next |.x{81}|))
(define-fun .def_106 () Bool (= .def_14 |.x{84}|))
(define-fun .def_105 () Bool (= |.x{81}| 0))
(define-fun .def_107 () Bool (and .def_105 .def_106))
(define-fun .def_10 () Int (! |.x{74}| :next |.y{3}|))
(define-fun .def_48 () Bool (<= .def_14 .def_10))
(define-fun .def_108 () Bool (and .def_48 .def_107))
(define-fun .def_109 () Bool (and .def_60 .def_108))
(define-fun .def_16 () Int (! |.y{2}| :next |.x{84}|))
(define-fun .def_102 () Bool (<= .def_16 .def_14))
(define-fun .def_103 () Bool (not .def_102))
(define-fun .def_99 () Int (select .def_12 |.x{92}|))
(define-fun .def_100 () Bool (= .def_99 43))
(define-fun .def_96 () Bool (= .def_16 |.x{84}|))
(define-fun .def_92 () Int (* (- 1) |.x{81}|))
(define-fun .def_93 () Int (+ .def_14 .def_92))
(define-fun .def_94 () Bool (= .def_93 (- 1)))
(define-fun .def_25 () Int (* (- 1) |.x{92}|))
(define-fun .def_87 () Int (+ .def_14 .def_25))
(define-fun .def_88 () Int (+ .def_8 .def_87))
(define-fun .def_89 () Bool (= .def_88 0))
(define-fun .def_32 () Bool (<= |.x{92}| 0))
(define-fun .def_33 () Bool (not .def_32))
(define-fun .def_31 () Bool (<= .def_8 0))
(define-fun .def_34 () Bool (or .def_31 .def_33))
(define-fun .def_90 () Bool (and .def_34 .def_89))
(define-fun .def_38 () Bool (not .def_31))
(define-fun .def_91 () Bool (and .def_38 .def_90))
(define-fun .def_95 () Bool (and .def_91 .def_94))
(define-fun .def_97 () Bool (and .def_95 .def_96))
(define-fun .def_98 () Bool (and .def_18 .def_97))
(define-fun .def_101 () Bool (and .def_98 .def_100))
(define-fun .def_104 () Bool (and .def_101 .def_103))
(define-fun .def_110 () Bool (or .def_104 .def_109))
(define-fun .def_111 () Bool (and .def_20 .def_110))
(define-fun .def_112 () Bool (and |.loc{5}| .def_111))
(define-fun .def_69 () Bool (not |.loc{5}|))
(define-fun .def_82 () Bool (and .def_36 .def_69))
(define-fun .def_57 () Bool (= |.y{3}| 0))
(define-fun .def_83 () Bool (and .def_57 .def_82))
(define-fun .def_44 () Bool (= .def_14 |.x{81}|))
(define-fun .def_84 () Bool (and .def_44 .def_83))
(define-fun .def_85 () Bool (and .def_48 .def_84))
(define-fun .def_86 () Bool (and .def_18 .def_85))
(define-fun .def_113 () Bool (or .def_86 .def_112))
(define-fun .def_115 () Bool (and .def_113 .def_114))
(define-fun .def_79 () (Array Int Int) (store .def_12 |.x{92}| 43))
(define-fun .def_80 () Bool (= |.x{83}| .def_79))
(define-fun .def_26 () Int (+ .def_10 .def_25))
(define-fun .def_27 () Int (+ .def_8 .def_26))
(define-fun .def_28 () Bool (= .def_27 0))
(define-fun .def_70 () Bool (and .def_28 .def_69))
(define-fun .def_71 () Bool (and .def_34 .def_70))
(define-fun .def_72 () Bool (and .def_38 .def_71))
(define-fun .def_73 () Bool (and .def_44 .def_72))
(define-fun .def_49 () Bool (not .def_48))
(define-fun .def_74 () Bool (and .def_49 .def_73))
(define-fun .def_75 () Bool (and .def_20 .def_74))
(define-fun .def_76 () Bool (and .def_60 .def_75))
(define-fun .def_52 () Int (* (- 1) |.y{3}|))
(define-fun .def_53 () Int (+ .def_10 .def_52))
(define-fun .def_54 () Bool (= .def_53 (- 1)))
(define-fun .def_77 () Bool (and .def_54 .def_76))
(define-fun .def_81 () Bool (and .def_77 .def_80))
(define-fun .def_116 () Bool (or .def_81 .def_115))
(define-fun .def_118 () Bool (and .def_116 .def_117))
(define-fun .def_65 () Bool (<= |.x{81}| 0))
(define-fun .def_66 () Bool (not .def_65))
(define-fun .def_62 () Bool (<= |.x{82}| 0))
(define-fun .def_63 () Bool (not .def_62))
(define-fun .def_58 () Bool (and .def_36 .def_57))
(define-fun .def_46 () Bool (not |.loc{6}|))
(define-fun .def_59 () Bool (and .def_46 .def_58))
(define-fun .def_61 () Bool (and .def_59 .def_60))
(define-fun .def_64 () Bool (and .def_61 .def_63))
(define-fun .def_67 () Bool (and .def_64 .def_66))
(define-fun .def_68 () Bool (and |.loc{5}| .def_67))
(define-fun .def_119 () Bool (or .def_68 .def_118))
(define-fun .def_41 () (Array Int Int) (store .def_12 |.x{92}| 42))
(define-fun .def_42 () Bool (= |.x{83}| .def_41))
(define-fun .def_30 () Bool (and .def_28 .def_29))
(define-fun .def_35 () Bool (and .def_30 .def_34))
(define-fun .def_37 () Bool (and .def_35 .def_36))
(define-fun .def_39 () Bool (and .def_37 .def_38))
(define-fun .def_43 () Bool (and .def_39 .def_42))
(define-fun .def_45 () Bool (and .def_43 .def_44))
(define-fun .def_47 () Bool (and .def_45 .def_46))
(define-fun .def_50 () Bool (and .def_47 .def_49))
(define-fun .def_51 () Bool (and .def_18 .def_50))
(define-fun .def_55 () Bool (and .def_51 .def_54))
(define-fun .def_56 () Bool (and |.loc{5}| .def_55))
(define-fun .def_120 () Bool (! (or .def_56 .def_119) :trans true))
(define-fun .def_122 () Int (! |.x{110}| :next |.xpv{1}|))
(define-fun .def_137 () Bool (and .def_18 .def_20))
(define-fun .def_133 () Int (select .def_12 .def_122))
(define-fun .def_134 () Bool (= .def_133 43))
(define-fun .def_135 () Bool (not .def_134))
(define-fun .def_126 () Int (* (- 1) .def_122))
(define-fun .def_127 () Int (+ .def_14 .def_126))
(define-fun .def_128 () Int (+ .def_8 .def_127))
(define-fun .def_129 () Bool (= .def_128 0))
(define-fun .def_130 () Bool (and .def_103 .def_129))
(define-fun .def_123 () Bool (<= .def_122 0))
(define-fun .def_124 () Bool (not .def_123))
(define-fun .def_125 () Bool (or .def_31 .def_124))
(define-fun .def_131 () Bool (and .def_125 .def_130))
(define-fun .def_132 () Bool (and .def_38 .def_131))
(define-fun .def_136 () Bool (and .def_132 .def_135))
(define-fun .def_138 () Bool (and .def_136 .def_137))
(define-fun .def_140 () Bool (! (not .def_138) :invar-property 0))
(assert true)
